Route #1:
Route #2: 2
Route #3: 7
Route #4: 29 9 17 21 22 28
Route #5: 24 1 30
Route #6: 3
Route #7: 31
Route #8: 13 11 18 20
Route #9: 16 27
Route #10: 15 10 5 4 6 19 23
Route #11: 25
Route #12: 26 8 12
Route #13: 14

Cost: 2250.26055350861
